13
0 50 68 83 62 77 76 31 62 61 52 51 53
50 0 25 33 32 19 40 45 40 43 61 16 47
68 25 0 37 42 69 73 49 29 73 39 3 21
83 33 37 0 77 31 57 31 72 30 52 57 65
62 32 42 77 0 59 62 45 82 25 51 28 77
77 19 69 31 59 0 37 9 69 50 66 55 63
76 40 73 57 62 37 0 44 43 55 77 32 23
31 45 49 31 45 9 44 0 37 72 48 34 41
62 40 29 72 82 69 43 37 0 22 69 88 33
61 43 73 30 25 50 55 72 22 0 39 39 50
52 61 39 52 51 66 77 48 69 39 0 44 60
51 16 3 57 28 55 32 34 88 39 44 0 65
53 47 21 65 77 63 23 41 33 50 60 65 0
